DIMACS2
20 44 72 8 40 61 86 89 124 80 36 49 108 27 26 102 111 92 148 88 145
p edge 160 375
e 0 79 1.0
e 0 136 1.0
e 1 39 1.0
e 1 144 1.0
e 2 38 1.0
e 2 152 2.0
e 3 43 1.0
e 3 10 1.0
e 4 35 2.0
e 4 135 1.0
e 5 119 1.0
e 5 141 1.0
e 6 15 1.0
e 6 87 1.0
e 7 67 1.0
e 7 136 1.0
e 8 110 8.0
e 8 94 10.0
e 8 145 32.0
e 8 26 3.0
e 8 148 22.0
e 8 27 18.0
e 8 36 5.0
e 9 73 2.0
e 9 37 1.0
e 10 77 1.0
e 10 93 1.0
e 11 124 20.0
e 11 1 1.0
e 12 68 2.0
e 12 47 1.0
e 13 122 1.0
e 13 63 1.0
e 14 102 6.0
e 14 88 31.0
e 15 45 1.0
e 15 86 45.0
e 16 48 2.0
e 16 113 1.0
e 17 123 2.0
e 17 13 1.0
e 18 101 1.0
e 18 145 14.0
e 19 84 1.0
e 19 113 1.0
e 20 135 1.0
e 20 24 1.0
e 21 26 49.0
e 21 147 1.0
e 22 51 1.0
e 22 117 1.0
e 23 35 1.0
e 23 2 1.0
e 24 96 1.0
e 24 13 1.0
e 25 132 1.0
e 25 144 1.0
e 26 28 14.0
e 26 56 33.0
e 26 148 3.0
e 26 80 27.0
e 26 27 6.0
e 27 84 3.0
e 27 157 19.0
e 27 92 31.0
e 27 36 18.0
e 27 61 12.0
e 27 124 48.0
e 27 72 38.0
e 28 148 30.0
e 28 61 13.0
e 29 118 1.0
e 29 24 1.0
e 30 133 2.0
e 30 91 1.0
e 31 101 1.0
e 31 134 1.0
e 32 10 1.0
e 32 14 1.0
e 33 80 33.0
e 33 5 1.0
e 34 13 2.0
e 34 56 1.0
e 35 76 1.0
e 35 26 38.0
e 36 84 8.0
e 36 33 41.0
e 36 80 1.0
e 36 72 41.0
e 36 145 2.0
e 36 49 38.0
e 37 74 1.0
e 37 121 1.0
e 38 129 2.0
e 38 9 5.0
e 39 7 1.0
e 39 152 1.0
e 40 127 25.0
e 40 125 2.0
e 40 26 43.0
e 40 49 27.0
e 40 8 8.0
e 40 36 7.0
e 40 108 28.0
e 40 102 26.0
e 41 24 1.0
e 41 96 1.0
e 42 118 1.0
e 42 124 5.0
e 43 128 1.0
e 43 144 1.0
e 44 16 46.0
e 44 119 18.0
e 44 80 25.0
e 44 27 1.0
e 44 40 29.0
e 45 48 1.0
e 45 79 1.0
e 46 96 1.0
e 46 150 1.0
e 47 116 1.0
e 47 104 1.0
e 48 81 2.0
e 48 77 2.0
e 49 21 24.0
e 49 136 45.0
e 49 148 20.0
e 49 145 45.0
e 49 124 28.0
e 49 44 22.0
e 50 131 1.0
e 50 39 2.0
e 51 86 31.0
e 51 90 1.0
e 52 118 1.0
e 52 60 1.0
e 53 15 1.0
e 53 154 1.0
e 54 117 2.0
e 54 40 21.0
e 55 60 1.0
e 55 112 3.0
e 56 69 1.0
e 56 134 1.0
e 57 50 2.0
e 57 133 1.0
e 58 107 1.0
e 58 29 1.0
e 59 149 2.0
e 59 53 1.0
e 60 19 3.0
e 61 30 32.0
e 61 9 19.0
e 61 44 23.0
e 61 145 35.0
e 61 49 23.0
e 61 92 47.0
e 62 5 1.0
e 62 44 41.0
e 63 97 2.0
e 63 107 1.0
e 64 46 1.0
e 64 3 1.0
e 65 45 2.0
e 65 75 2.0
e 66 59 1.0
e 66 132 2.0
e 67 149 1.0
e 67 145 28.0
e 68 14 1.0
e 68 77 1.0
e 69 24 1.0
e 69 45 1.0
e 70 152 1.0
e 70 74 1.0
e 71 156 1.0
e 71 11 2.0
e 72 147 45.0
e 72 56 44.0
e 72 148 44.0
e 72 102 25.0
e 72 44 32.0
e 73 70 1.0
e 73 149 2.0
e 74 147 1.0
e 74 135 1.0
e 75 72 35.0
e 75 127 1.0
e 76 18 1.0
e 76 77 1.0
e 77 144 1.0
e 77 128 1.0
e 78 141 1.0
e 78 39 3.0
e 79 81 2.0
e 79 71 1.0
e 80 152 40.0
e 80 153 38.0
e 80 108 20.0
e 80 88 8.0
e 81 23 1.0
e 81 38 1.0
e 82 146 1.0
e 82 8 28.0
e 83 99 1.0
e 83 23 2.0
e 84 131 3.0
e 84 10 1.0
e 85 93 1.0
e 85 50 1.0
e 86 92 32.0
e 86 114 49.0
e 86 148 18.0
e 86 49 39.0
e 86 61 19.0
e 87 106 1.0
e 87 99 1.0
e 88 111 46.0
e 88 30 49.0
e 88 148 15.0
e 88 72 18.0
e 88 86 26.0
e 89 62 28.0
e 89 71 19.0
e 89 108 9.0
e 89 80 34.0
e 89 88 49.0
e 89 92 46.0
e 89 111 24.0
e 89 102 21.0
e 90 50 3.0
e 90 57 2.0
e 91 130 1.0
e 91 103 1.0
e 92 110 10.0
e 92 56 35.0
e 92 102 25.0
e 92 108 37.0
e 92 111 33.0
e 93 101 1.0
e 93 143 1.0
e 94 19 1.0
e 94 45 1.0
e 95 124 29.0
e 95 88 30.0
e 96 18 2.0
e 96 142 1.0
e 97 113 2.0
e 97 98 2.0
e 98 14 1.0
e 98 5 1.0
e 99 78 2.0
e 99 4 1.0
e 100 85 2.0
e 100 18 2.0
e 101 113 1.0
e 101 41 1.0
e 102 52 32.0
e 102 44 39.0
e 102 108 31.0
e 103 75 1.0
e 103 8 11.0
e 104 19 1.0
e 104 30 1.0
e 105 75 2.0
e 105 2 1.0
e 106 98 1.0
e 106 91 1.0
e 107 4 1.0
e 107 33 1.0
e 108 150 18.0
e 108 134 40.0
e 108 111 37.0
e 108 148 16.0
e 109 43 1.0
e 109 46 2.0
e 110 157 2.0
e 110 28 1.0
e 111 47 10.0
e 111 127 36.0
e 111 102 4.0
e 112 86 11.0
e 112 143 1.0
e 113 26 23.0
e 113 116 1.0
e 114 144 1.0
e 114 132 1.0
e 115 56 1.0
e 115 61 47.0
e 116 12 3.0
e 116 6 1.0
e 117 89 8.0
e 117 85 1.0
e 118 6 1.0
e 118 91 1.0
e 119 4 1.0
e 119 35 1.0
e 120 35 1.0
e 120 20 2.0
e 121 21 1.0
e 121 120 2.0
e 122 45 1.0
e 122 111 48.0
e 123 124 47.0
e 123 84 2.0
e 124 145 3.0
e 124 146 12.0
e 125 121 2.0
e 125 4 1.0
e 126 73 2.0
e 126 88 15.0
e 127 73 1.0
e 127 115 3.0
e 128 3 1.0
e 128 13 1.0
e 129 149 2.0
e 129 118 1.0
e 130 13 2.0
e 130 73 1.0
e 131 124 10.0
e 131 153 1.0
e 132 1 1.0
e 133 73 3.0
e 133 124 5.0
e 134 5 2.0
e 134 121 1.0
e 135 64 1.0
e 135 38 2.0
e 136 129 1.0
e 136 115 2.0
e 137 0 1.0
e 137 47 1.0
e 138 95 1.0
e 138 158 1.0
e 139 79 2.0
e 139 14 1.0
e 140 3 2.0
e 140 52 1.0
e 141 6 1.0
e 141 30 1.0
e 142 80 16.0
e 142 117 2.0
e 143 107 1.0
e 143 52 3.0
e 144 155 1.0
e 144 115 2.0
e 145 51 18.0
e 145 156 15.0
e 146 74 2.0
e 146 78 1.0
e 147 111 13.0
e 147 94 2.0
e 148 65 43.0
e 148 145 25.0
e 149 34 1.0
e 149 83 1.0
e 150 125 1.0
e 150 87 2.0
e 151 107 1.0
e 151 76 1.0
e 152 129 1.0
e 152 31 1.0
e 153 150 1.0
e 154 36 33.0
e 154 72 14.0
e 155 153 2.0
e 155 3 1.0
e 156 98 1.0
e 156 85 3.0
e 157 68 1.0
e 157 69 1.0
e 158 45 1.0
e 158 116 1.0
e 159 102 37.0
e 159 86 48.0
